# Solution for model r10_t9_m1_7
# Finished Task: 9 / 9
# Makespan: 480.0, Total Distance: 418.0, Total Time: 0.2153
# R O S F
0 0 17 0.0 0.0
1 1 10 0.0 0.0
2 2 16 0.0 0.0
3 3 12 0.0 0.0
4 4 -1 0.0 0.0
5 5 -1 0.0 0.0
6 6 -1 0.0 0.0
7 7 -1 0.0 0.0
8 8 -1 0.0 0.0
9 9 -1 0.0 0.0
10 1 18 326.0 353.0
11 0 -1 431.0 454.0
12 3 14 276.0 307.0
13 3 -1 431.0 456.0
14 3 13 353.0 380.0
15 2 -1 454.0 480.0
16 2 15 353.0 378.0
17 0 11 294.0 326.0
18 1 -1 392.0 431.0
